words_hard_train/5990.qaiger
aag 73 10 0 1 63
2
4
8
12
16
20
24
38
44
96
147
6 3 5
10 6 9
14 10 13
18 14 17
22 18 21
26 23 25
28 22 24
30 27 29
32 7 8
34 32 12
36 35 16
40 39 4
42 41 7
46 45 2
48 38 5
50 46 49
52 42 51
54 37 53
56 55 24
58 15 16
60 59 19
62 57 61
64 52 13
66 33 11
68 64 66
70 69 25
72 63 71
74 19 20
76 75 23
78 77 25
80 76 24
82 79 81
84 72 82
86 31 85
88 85 81
90 30 89
92 87 91
94 84 25
98 23 96
100 95 99
102 22 97
104 88 24
106 102 105
108 100 107
110 92 109
112 105 98
114 73 83
116 115 85
118 117 21
120 116 20
122 119 121
124 25 5
126 8 12
128 125 127
130 129 39
132 24 4
134 9 13
136 133 135
138 137 44
140 130 138
142 123 140
144 113 142
146 110 144
i0 1 x1[0]
i1 1 x1[1]
i2 1 x1[2]
i3 1 x1[3]
i4 1 x1[4]
i5 1 x1[5]
i6 2 y1[7]
i7 2 y1[6]
i8 2 y1[5]
i9 1 x1[6]
o0 bool[0]
c
simplified
  !=
    1
    xor
      1 x1
      subtract
        >> 5
          2 y1
        1 x1
