words_hard_train/5990.qaiger.qdimacs
p cnf 73 190
a 1 2 4 6 8 10 48 0
e 3 5 7 9 11 12 13 14 15 16 17 18 19 20 21 22 23 24 25 26 27 28 29 30 31 32 33 34 35 36 37 38 39 40 41 42 43 44 45 46 47 49 50 51 52 53 54 55 56 57 58 59 60 61 62 63 64 65 66 67 68 69 70 71 72 73 0
1 2 3 0
-1 -3 0
-2 -3 0
-3 4 5 0
3 -5 0
-4 -5 0
-5 6 7 0
5 -7 0
-6 -7 0
-7 8 9 0
7 -9 0
-8 -9 0
-9 10 11 0
9 -11 0
-10 -11 0
11 12 13 0
-11 -13 0
-12 -13 0
-11 -12 14 0
11 -14 0
12 -14 0
13 14 15 0
-13 -15 0
-14 -15 0
3 -4 16 0
-3 -16 0
4 -16 0
-16 -6 17 0
16 -17 0
6 -17 0
17 -8 18 0
-17 -18 0
8 -18 0
19 -2 20 0
-19 -20 0
2 -20 0
20 3 21 0
-20 -21 0
-3 -21 0
22 -1 23 0
-22 -23 0
1 -23 0
-19 2 24 0
19 -24 0
-2 -24 0
-23 24 25 0
23 -25 0
-24 -25 0
-21 25 26 0
21 -26 0
-25 -26 0
18 26 27 0
-18 -27 0
-26 -27 0
27 -12 28 0
-27 -28 0
12 -28 0
7 -8 29 0
-7 -29 0
8 -29 0
29 9 30 0
-29 -30 0
-9 -30 0
28 30 31 0
-28 -31 0
-30 -31 0
-26 6 32 0
26 -32 0
-6 -32 0
16 5 33 0
-16 -33 0
-5 -33 0
-32 -33 34 0
32 -34 0
33 -34 0
34 12 35 0
-34 -35 0
-12 -35 0
31 35 36 0
-31 -36 0
-35 -36 0
9 -10 37 0
-9 -37 0
10 -37 0
37 11 38 0
-37 -38 0
-11 -38 0
38 12 39 0
-38 -39 0
-12 -39 0
-38 -12 40 0
38 -40 0
12 -40 0
39 40 41 0
-39 -41 0
-40 -41 0
-36 -41 42 0
36 -42 0
41 -42 0
15 42 43 0
-15 -43 0
-42 -43 0
42 40 44 0
-42 -44 0
-40 -44 0
-15 44 45 0
15 -45 0
-44 -45 0
43 45 46 0
-43 -46 0
-45 -46 0
-42 12 47 0
42 -47 0
-12 -47 0
11 -48 49 0
-11 -49 0
48 -49 0
47 49 50 0
-47 -50 0
-49 -50 0
-11 48 51 0
11 -51 0
-48 -51 0
-44 -12 52 0
44 -52 0
12 -52 0
-51 52 53 0
51 -53 0
-52 -53 0
-50 53 54 0
50 -54 0
-53 -54 0
-46 54 55 0
46 -55 0
-54 -55 0
52 -49 56 0
-52 -56 0
49 -56 0
36 41 57 0
-36 -57 0
-41 -57 0
57 42 58 0
-57 -58 0
-42 -58 0
58 10 59 0
-58 -59 0
-10 -59 0
-58 -10 60 0
58 -60 0
10 -60 0
59 60 61 0
-59 -61 0
-60 -61 0
12 2 62 0
-12 -62 0
-2 -62 0
-4 -6 63 0
4 -63 0
6 -63 0
62 63 64 0
-62 -64 0
-63 -64 0
64 19 65 0
-64 -65 0
-19 -65 0
-12 -2 66 0
12 -66 0
2 -66 0
4 6 67 0
-4 -67 0
-6 -67 0
66 67 68 0
-66 -68 0
-67 -68 0
68 -22 69 0
-68 -69 0
22 -69 0
-65 -69 70 0
65 -70 0
69 -70 0
61 -70 71 0
-61 -71 0
70 -71 0
56 -71 72 0
-56 -72 0
71 -72 0
-55 -72 73 0
55 -73 0
72 -73 0
-73 0
